30920
0 0 1 0 1 0 1 1 0 0 0 0 0 1 1 1 0 1 0 0 1 1 1 1 1 1 1 1 1 0 
7 6 21 27 2 6 15 27 22 28 4 28 13 13 28 7 13 20 22 27 27 21 23 24 23 27 27 14 4 2 6 26 4 21 27 6 20 20 24 15 7 20 6 4 20 26 13 21 14 14 24 24 24 21 20 6 25 26 22 7 4 2 7 20 13 25 23 14 28 25 7 6 6 20 23 23 20 23 20 24 23 17 26 25 4 13 6 2 27 7 28 6 25 25 2 13 28 6 17 28 28 15 25 7 4 24 4 24 22 13 14 4 27 6 6 20 28 7 17 20 26 25 17 4 26 21 2 28 26 17 28 24 25 20 23 20 13 13 28 14 25 22 28 25 25 2 24 15 27 25 24 17 23 17 13 28 2 15 13 13 13 27 23 24 23 27 2 4 14 21 2 13 14 14 26 2 27 14 4 14 21 21 21 6 7 26 17 23 17 21 21 21 26 26 7 17 7 15 17 14 
